(set-info :smt-lib-version 2.6)
(set-logic QF_S)
(set-info :source |
Generated by: Shaoke Cui
Generated on: 2025-04-10
Application: Using String Solvers to solve string matching problems
Target solver: cvc5, OSTRICH, Z3, Z3alpha, Z3-noodler
Benchmarks for substring matching problem, which needs to determine whether the pattern string exists in the text string.
|)
(set-info :license "https://creativecommons.org/licenses/by/4.0/")
(set-info :category "crafted")
(set-info :status sat)
(declare-fun a1() String)
(declare-fun a2() String)
(declare-fun a3() String)
(declare-fun a4() String)
(declare-fun a5() String)
(declare-fun a6() String)
(declare-fun a7() String)
(declare-fun a8() String)
(assert (= a1 "EEEEEEEEEEEEEEEEEEEEEEEEEEEEEEEEEEEEEEEEEEEEEEEEEEEEEEEEEEEEEEEEEEEEEEEEEEEEEEEEEEEEEEEEEEEEEEEEEEEEEEEEEEEEEEEEEEEEEEEEEEEEEEEEEEEEEEEEEEEEEEEEEEEEEEEEEEEEEEEEEEEEEEEEEE"))
(assert (= a2 "EEEEEEEEEEEEEEEEEEEEEEEEEEEEEEEEEEEEEEEEEEEEEEEEEEEEEEEEEEEEEEEEEEEEEEEEEEEEEEEEEEEEEEEEEEEEEEEEEEEEEEEEEEEEEEEEEEEEEEEEEEEEEEEEEEEEEEEEEEEEEEEEEEEEEEEEEEEEEEEEEEEEEEEEEE"))
(assert (= a3 "EEEEEEEEEEEEEEEEEEEEEEEEEEEEEEEEEEEEEEEEEEEEEEEEEEEEEEEEEEEEEEEEEEEEEEEEEEEEEEEEEEEEEEEEEEEEEEEEEEEEEEEEEEEEEEEEEEEEEEEEEEEEEEEEEEEEEEEEEEEEEEEEEEEEEEEEEEEEEEEEEEEEEEEEEE"))
(assert (= a4 "EEEEEEEEEEEEEEEEEEEEEEEEEEEEEEEEEEEEEEEEEEEEEEEEEEEEEEEEEEEEEEEEEEEEEEEEEEEEEEEEEEEEEEEEEEEEEEEEEEEEEEEEEEEEEEEEEEEEEEEEEEEEEEEEEEEEEEEEEEEEEEEEEEEEEEEEEEEEEEEEEEEEEEEEEE"))
(assert (= a5 "EEEEEEEEEEEEEEEEEEEEEEEEEEEEEEEEEEEEEEEEEEEEEEEEEEEEEEEEEEEEEEEEEEEEEEEEEEEEEEEEEEEEEEEEEEEEEEEEEEEEEEEEEEEEEEEEEEEEEEEEEEEEEEEEEEEEEEEEEEEEEEEEEEEEEEEEEEEEEEEEEEEEEEE"))
(assert (= a6 "EEEEEEEEEEEEEEEEEEEEEEEEEEEEEEEEEEEEEEEEEEEEEEEEEEEEEEEEEEEEEEEEEEEEEEEEEEEEEEEEEEEEEEEEEEEEEEEEEEEEEEEEEEEEEEEEEEEEEEEEEEEEEEEEEEEEEEEEEEEEEEEEEEEEEEEEEEEEEEEEEEEEEEE"))
(assert (= a7 "EEEEEEEEEEEEEEEEEEEEEEEEEEEEEEEEEEEEEEEEEEEEEEEEEEEEEEEEEEEEEEEEEEEEEEEEEEEEEEEEEEEEEEEEEEEEEEEEEEEEEEEEEEEEEEEEEEEEEEEEEEEEEEEEEEEEEEEEEEEEEEEEEEEEEEEEEEEEEEEEEEEEEEE"))
(assert (= a8 "EEEEEEEEEEEEEEEEEEEEEEEEEEEEEEEEEEEEEEEEEEEEEEEEEEEEEEEEEEEEEEEEEEEEEEEEEEEEEEEEEEEEEEEEEEEEEEEEEEEEEEEEEEEEEEEEEEEEEEEEEEEEEEEEEEEEEEEEEEEEEEEEEEEEEEEEEEEEEEEEEEEEEEE"))
(assert (str.contains (str.++ a1 a3 a2 a4 a2 a3 a3 a4 a4 a3 a2 a4 a1 a2 a3 a4 a3 a3 a4 a4 a1 a2 a1 a1 a3 a1 a2 a3 a1 a1 a1 a3 a4 a1 a2 a4 a3 a2 a4 a4 a1 a2 a1 a4 a3 a4 a1 a2 a1 a3 a1 a3 a4 a2 a3 a4 a1 a2 a2 a4 a1 a1 a1 a1 a4 a3 a4 a2 a3 a4 a3 a3 a4 a3 a1 a1 a3 a3 a1 a1 a4 a3 a2 a4 a1 a3 a2 a4 a4 a4 a4 a2 a4 a2 a1 a2 a3 a1 a3 a3 a2 a4 a4 a3 a3 a2 a4 a3 a2 a2 a2 a4 a1 a3 a1 a2 a4 a2 a4 a3 a2 a4 a3 a1 a3 a2 a1 a2 a3 a1 a4 a4 a4 a4 a4 a3 a4 a3 a4 a1 a1 a3 a3 a4 a1 a4 a2 a1 a2 a4 a1 a1 a4 a1 a2 a3 a4 a2 a4 a1 a4 a2 a2 a3 a4 a2 a1 a3 a1 a4 a1 a3 a4 a3 a3 a4 a1 a2 a1 a2 a3 a3 a1 a4 a4 a4 a1 a2 a1 a1 a2 a3 a3 a3 a2 a4 a1 a3 a4 a2 a4 a3 a2 a2 a3 a1 a3 a3 a1 a3 a3 a3 a4 a2 a2 a2 a3 a2 a2 a3 a1 a1 a1 a1 a1 a2 a4 a4 a3 a2 a3 a3 a3 a4 a3 a1 a2 a3 a3 a4 a2 a3 a3 a3 a4 a4 a1 a3 a4 a3 a3 a1 a3 a2 a1 a4 a2 a1 a1 a4 a3 a3 a4 a3 a3 a4 a2 a1 a3 a4 a4 a3 a2 a3 a1 a1 a4 a4 a2 a1 a1 a4 a1 a2 a3 a3 a2 a2 a1 a3 a1 a2 a2 a2 a4 a4 a4 a2 a1 a2 a4 a3 a2 a2 a2 a3 a2 a4 a2 a3 a3 a2 a4 a3 a2 a4 a2 a3 a4 a4 a3 a3 a3 a4 a4 a2 a1 a3 a1 a3 a4 a2 a3 a4 a1 a4 a4 a4 a3 a3 a1 a4 a1 a2 a4 a1 a4 a3 a2 a1 a2 a1 a1 a2 a3 a2 a1 a1 a2 a3 a1 a3 a2 a1 a1 a2 a3 a3 a4 a1 a1 a4 a2 a2 a3 a4 a2 a4 a4 a1 a4 a4 a4 a3 a4 a3 a1 a3 a3 a4 a3 a2 a2 a1 a3 a3 a2 a3 a3 a4 a3 a3 a3 a3 a3 a2 a4 a1 a4 a2 a4 a2 a3 a3 a4 a1 a3 a2 a4 a4 a1 a2 a1 a4 a4 a4 a2 a3 a4 a2 a2 a3 a3 a4 a4 a2 a4 a3 a1 a3 a2 a2 a2 a4 a2 a4 a3 a2 a4 a2 a2 a2 a4 a1 a2 a2 a4 a3 a3 a1 a1 a3 a1 a2 a4 a3 a3 a4 a4 a3 a3 a3 a2 a4 a4 a1 a4 a1 a4 a2 a1 a2 a2 a2 a2 a3 a1 a1 a4 a1 a3 a1 a1 a4 a4 a2 a1 a4 a2 a4 a3 a1 a1 a3 a4 a3 a2 a4 a2 a3 a4 a2 a3 a2 a1 a3 a2 a4 a2 a4 a4 a3 a3 a1 a4 a3 a3 a4 a3 a1 a3 a4 a2 a4 a1 a4 a3 a2 a1 a1 a4 a4 a1 a1 a3 a2 a3 a3 a1 a2 a4 a1 a4 a4 a1 a2 a2 a2 a1 a3 a2 a3 a3 a4 a1 a3 a4 a2 a2 a4 a2 a3 a2 a4 a3 a1 a1 a2 a4 a1 a4 a1 a4 a1 a1 a2 a1 a1 a2 a3 a2 a3 a4 a4 a3 a1 a3 a2 a1 a4 a1 a3 a4 a2 a3 a1 a3 a4 a1 a1 a1 a3 a4 a4 a3 a3 a1 a3 a2 a2 a3 a3 a2 a1 a1 a1 a4 a4 a1 a4 a1 a2 a1 a2 a4 a1 a4 a1 a3 a4 a2 a2 a2 a1 a1 a4 a2 a4 a1 a2 a4 a3 a3 a3 a4 a2 a1 a1 a1 a3 a3 a2 a4 a3 a4 a4 a2 a2 a1 a2 a2 a1 a4 a4 a1 a4 a4 a2 a3 a1 a2 a3 a4 a4 a4 a3 a4 a3 a1 a4 a3 a3 a3 a1 a4 a2 a4 a4 a1 a2 a1 a3 a1 a2 a4 a2 a2 a3 a3 a4 a4 a2 a3 a3 a2 a4 a1 a4 a4 a4 a3 a3 a2 a4 a4 a4 a4 a3 a4 a3 a4 a1 a4 a4 a4 a3 a1 a4 a2 a1 a4 a3 a1 a4 a1 a1 a3 a1 a2 a1 a1 a1 a1 a1 a4 a2 a2 a4 a3 a1 a4 a4 a3 a2 a1 a3 a2 a4 a1 a3 a3 a4 a2 a4 a4 a2 a4 a3 a1 a4 a4 a3 a3 a4 a1 a2 a3 a4 a1 a1 a2 a1 a1 a4 a4 a2 a1 a2 a2 a4 a1 a4 a1 a4 a1 a3 a3 a2 a3 a4 a4 a2 a1 a2 a2 a4 a1 a4 a4 a3 a4 a1 a3 a1 a2 a3 a2 a3 a1 a3 a2 a1 a1 a2 a3 a1 a1 a1 a4 a3 a1 a2 a2 a1 a3 a4 a4 a3 a3 a2 a4 a1 a2 a2 a4 a3 a2 a4 a2 a4 a1 a4 a3 a1 a2 a4 a2 a4 a3 a3 a4 a2 a3 a1 a1 a3 a2 a1 a3 a2 a1 a2 a4 a3 a3 a3 a4 a2 a3 a1 a2 a4 a1 a4 a1 a2 a3 a4 a2 a4 a1 a3 a2 a3 a4 a2 a2 a1 a2 a3 a3 a4 a4 a3 a2 a4 a2 a1 a4 a4 a3 a3 a2 a2 a3 a1 a2 a3 a4 a2 a3 a4 a4 a4 a3 a3 a2 a1 a4 a2 a4 a2 a3 a1 a2 a3 a3 a1 a4 a2 a3 a3 a1 a1 a4 a1 a3 a4 a2 a3 a3 a2 a1 a4 a2 a3 a4 a1 a3 a4 a1 a2 a3 a1 a3 a2 a4 a2 a2 a1 a1 a3 a1 a2 a2 a1 a4 a4 a2 a2 a3 a4 a1 a4 a3 a2 a1 a4 a4 a4 a3 a4 a4 a2 a2 a2 a3 a3 a1 a4 a4 a2 a4 a1 a4 a4 a4 a3 a1 a4 a1 a2 a1 a1 a3 a4 a2 a4 a2 a1 a4 a4 a1 a3 a3 a2 a2 a3 a1 a3 a3 a2 a4 a4 a3 a4 a2 a1 a1 a3 a3 a3 a3 a3 a1 a3 a1 a3 a4 a1 a3 a2 a2 a1 a1 a3 a3 a1 a2 a4 a4 a4 a1 a1 a4 a3 a3 a1 a4 a2 a2 a4 a3 a4 a1 a3 a2 a1 a3 a4 a4 a2 a2 a2 a1 a2 a1 a1 a1 a3 a4 a3 a2 a1 a2 a4 a1 a2 a1 a1 a2 a3 a1 a2 a4 a1 a4 a1 a1 a4 a2 a1 a1 a3 a3 a2 a4 a2 a2 a2 a1 a1 a1 a1 a1 a2 a1 a3 a4 a1 a4 a2 a2 a1 a3 a4 a4 a4 a3 a2 a1 a2 a4 a1 a4 a2 a1 a3 a2 a2 a4 a4 a3 a1 a3 a3 a4 a4 a4 a1 a4 a3 a3 a1 a3 a2 a1 a2 a4 a3 a2 a3 a1 a3 a3 a2 a2 a1 a3 a4 a3 a4 a2 a3 a2 a3 a1 a3 a1 a4 a1 a4 a3 a1 a4 a1 a2 a2 a1 a3 a2 a3 a4 a1 a4 a2 a2 a3 a3 a4 a3 a3 a1 a4 a1 a4 a2 a4 a4 a4 a4 a1 a4 a1 a3 a1 a2 a1 a3 a1 a4 a3 a4 a3 a2 a1 a3 a4 a4 a2 a3 a1 a1 a4 a1 a3 a2 a1 a3 a3 a1 a4 a2 a2 a4 a3 a3 a2 a3 a2 a3 a3 a1 a3 a1 a1 a3 a3 a2 a2 a1 a1 a4 a4 a3 a3 a2 a2 a3 a3 a3 a1 a1 a2 a1 a1 a2 a4 a2 a2 a2 a2 a3 a3 a1 a4 a1 a1 a1 a1 a2 a3 a2 a3 a2 a2 a1 a2 a2 a1 a2 a2 a1 a3 a3 a1 a1 a2 a3 a2 a3 a1 a3 a1 a1 a4 a2 a2 a3 a1 a3 a1 a3 a2 a2 a1 a3 a3 a1 a3 a4 a1 a4 a2 a3 a3 a2 a3 a3 a2 a4 a2 a1 a2 a1 a3 a4 a1 a4 a1 a2 a3 a2 a3 a4 a2 a3 a2 a1 a3 a1 a2 a1 a2 a1 a3 a2 a1 a3 a3 a1 a3 a2 a1 a2 a1 a2 a1 a1 a3 a3 a2 a2 a3 a1 a4 a2 a4 a1 a1 a4 a4 a3 a1 a4 a2 a3 a4 a4 a4 a4 a3 a1 a2 a3 a4 a4 a4 a4 a2 a1 a2 a1 a1 a4 a2 a3 a4 a2 a3 a2 a1 a2 a1 a4 a2 a2 a2 a3 a2 a1 a2 a1 a2 a3 a3 a1 a2 a3 a1 a4 a4 a1 a2 a1 a2 a3 a4 a2 a2 a4 a2 a2 a3 a2 a2 a1 a2 a2 a1 a2 a1 a4 a1 a4 a4 a3 a4 a1 a3 a1 a1 a2 a1 a3 a2 a1 a4 a1 a2 a4 a2  "1" a8 a5 a7 a6 a8 a6 a8 a5 a7 a8 a7 a5 a8 a8 a6 a6 a7 a5 a7 a8 a5 a5 a6 a7 a5 a7 a5 a5 a8 a8 a5 a7 a5 a7 a8 a8 a8 a7 a7 a6 a7 a6 a8 a7 a5 a6 a5 a8 a5 a5 a5 a5 a7 a5 a5 a5 a8 a7 a5 a7 a7 a7 a6 a7 a6 a6 a6 a7 a5 a6 a7 a5 a6 a5 a5 a8 a7 a7 a7 a8 a5 a5 a8 a6 a7 a5 a6 a8 a8 a8 a8 a8 a7 a5 a8 a5 a6 a5 a7 a5 a6 a6 a6 a6 a7 a6 a8 a6 a8 a6 a5 a6 a6 a5 a6 a7 a7 a8 a6 a7 a7 a8 a5 a6 a6 a6 a8 a8 a8 a8 a8 a6 a7 a5 a6 a6 a5 a7 a7 a8 a5 a7 a6 a5 a7 a6 a5 a6 a5 a8 a5 a8 a8 a8 a5 a5 a5 a6 a7 a6 a6 a7 a6 a7 a7 a7 a8 a8 a6 a5 a8 a6 a7 a6 a5 a8 a8 a5 a7 a6 a6 a8 a6 a7 a7 a5 a7 a7 a8 a8 a6 a7 a7 a6 a6 a8 a6 a5 a7 a5 a8 a7 a8 a6 a7 a5 a8 a7 a5 a5 a7 a7 a8 a5 a6 a5 a5 a7 a6 a6 a7 a6 a8 a7 a5 a8 a7 a6 a7 a6 a5 a5 a8 a6 a7 a8 a8 a7 a5 a7 a6 a5 a5 a8 ) (str.++ a8 a6 a6 a6 a5 a8 a5 a8 a8 a5 a6 a8 a8 a6 a7 a5 a5 a5 a5 a6 a5 a5 a8 a7 a5 a5 a5 a7 a6 a6 a7 a5 a5 a5 a5 a6 a6 a6 a8 a6 a5 a5 a6 a8 a5 a6 a7 a6 a8 a6 a7 a6 a8 a7 a8 a8 a8 a5 a5 a6 a6 a8 a8 a8 a8 a5 a6 a7 a7 a7 a6 a8 a8 a6 a8 a7 a6 a5 a6 a5 a5 a6 a7 a8 a8 a6 a5 a7 a5 a8 a7 a6 a6 a7 a6 a7 a6 a7 a8 a7 a7 a8 a7 a8 a7 a7 a8 a8 a7 a8 a6 a7 a5 a8 a7 a7 a7 a6 a6 a7 a5 a5 a6 a6 a8 a8 a5 a7 a7 a7 a6 a5 a8 a5 a8 a8 a6 a5 a5 a7 a7 a5 a5 a6 a6 a6 a5 a6 a6 a6 a5 a5 a8 a7 a7 a8 a7 a7 a6 a7 a5 a5 a5 a6 a7 a8 a5 a6 a7 a7 a6 a8 a7 a8 a5 a6 a7 a5 a5 a8 a5 a7 a7 a5 a7 a8 a8 a5 a7 a6 a7 a7 a5 a5 a5 a5 a7 a8 a6 a8 a6 a7 a5 a7 a8 a7 a8 a5 a7 a7 a7 a8 a5 a5 a5 a7 a8 a6 a8 a6 a8 a8 a6 a6 a7 a5 a6 a6 a8 a6 a5 a6 a6 a8 a5 a8 a7 a5 a5 a8 a7  "1")))
(check-sat)
(exit)
